20
587 233 220
73 73 36
87 49 26
68 53 44
73 57 33
65 49 47
80 65 35
72 35 26
75 68 40
104 53 34
97 93 45
79 54 49
52 32 27
84 72 59
74 71 53
102 70 27
80 79 52
102 87 35
70 31 27
60 57 51
84 76 38
thpack7_77